BEGIN IONS
PEPMASS=348.939799312
EXACT_MASS=349.947075312
CHARGE=1-
INSTRUMENT=Orbitrap
PRECURSOR=348.9397984144544
TITLE=ACEKLXZRZOWKRY_N_4
SEQ=ACEKLXZRZOWKRY-UHFFFAOYSA-N
SMILES=O=S(=O)(O)C(F)(F)C(F)(F)C(F)(F)C(F)(F)C(F)(F)F
CASNO=unknown
NAME=Perfluoro-1-pentanesulfonate
ID=ACEKLXZRZOWKRY
PRECURSOR_TYPE=[M-H]-
FORMULA=C5HF11O3S
348.9398 178102800
79.95736 48797640
98.95577 24266610
END IONS
BEGIN IONS
PEPMASS=526.96151876
EXACT_MASS=527.96879476
CHARGE=1-
INSTRUMENT=Orbitrap
PRECURSOR=526.96151778501451
TITLE=ALVYVCQIFHTIRD_N_5
SEQ=ALVYVCQIFHTIRD-UHFFFAOYSA-N
SMILES=O=S(=O)(O)CCC(F)(F)C(F)(F)C(F)(F)C(F)(F)C(F)(F)C(F)(F)C(F)(F)C(F)(F)F
CASNO=unknown
NAME=8:2 Fluorinated telomer sulfonate
ID=ALVYVCQIFHTIRD
PRECURSOR_TYPE=[M-H]-
FORMULA=C10H5F17O3S
80.96519 32758710
526.9615 17312470
79.95736 8333651
END IONS
